90
2014
45
0 6
0 8
0 9
0 11
0 13
0 15
0 17
0 18
0 19
0 23
0 24
0 25
0 26
0 27
0 28
0 30
0 32
0 38
0 39
0 40
0 43
0 46
0 47
0 49
0 50
0 52
0 53
0 54
0 55
0 56
0 57
0 58
0 59
0 60
0 61
0 62
0 65
0 66
0 67
0 70
0 73
0 75
0 78
0 81
0 83
0 88
1 2
1 7
1 8
1 9
1 12
1 17
1 21
1 26
1 27
1 35
1 36
1 40
1 42
1 43
1 45
1 46
1 47
1 52
1 54
1 57
1 58
1 59
1 60
1 62
1 64
1 67
1 69
1 71
1 75
1 78
1 81
1 84
2 4
2 5
2 8
2 9
2 14
2 16
2 18
2 19
2 20
2 21
2 23
2 25
2 26
2 28
2 32
2 33
2 35
2 36
2 40
2 42
2 43
2 46
2 47
2 49
2 50
2 51
2 52
2 54
2 55
2 57
2 62
2 63
2 65
2 66
2 68
2 73
2 75
2 76
2 79
2 80
2 83
2 85
2 86
2 88
3 6
3 11
3 13
3 14
3 15
3 16
3 17
3 18
3 20
3 21
3 22
3 23
3 25
3 27
3 28
3 30
3 31
3 33
3 35
3 36
3 37
3 39
3 40
3 41
3 43
3 45
3 50
3 51
3 53
3 54
3 56
3 59
3 62
3 68
3 69
3 70
3 71
3 72
3 73
3 74
3 76
3 77
3 78
3 79
3 80
3 82
3 83
3 84
3 85
3 87
3 88
4 5
4 8
4 9
4 10
4 11
4 12
4 14
4 15
4 16
4 17
4 18
4 19
4 23
4 25
4 28
4 29
4 30
4 32
4 33
4 34
4 35
4 36
4 37
4 39
4 40
4 41
4 42
4 43
4 45
4 46
4 50
4 52
4 53
4 57
4 60
4 63
4 64
4 65
4 66
4 67
4 68
4 70
4 71
4 74
4 76
4 79
4 81
4 84
4 85
4 87
4 88
5 7
5 9
5 11
5 12
5 13
5 15
5 16
5 17
5 18
5 21
5 22
5 23
5 24
5 28
5 30
5 33
5 34
5 43
5 46
5 49
5 50
5 51
5 52
5 53
5 54
5 55
5 56
5 57
5 61
5 62
5 63
5 70
5 72
5 73
5 78
5 80
5 81
5 83
5 84
5 86
5 88
6 8
6 9
6 10
6 14
6 16
6 19
6 24
6 30
6 36
6 39
6 40
6 41
6 43
6 47
6 48
6 49
6 51
6 53
6 57
6 58
6 59
6 61
6 62
6 63
6 64
6 65
6 68
6 69
6 70
6 73
6 74
6 76
6 79
6 80
6 81
6 82
6 84
6 86
6 87
6 88
7 8
7 10
7 11
7 13
7 17
7 19
7 25
7 30
7 35
7 37
7 38
7 40
7 41
7 42
7 43
7 47
7 51
7 52
7 54
7 56
7 57
7 58
7 60
7 61
7 63
7 65
7 66
7 67
7 68
7 70
7 73
7 74
7 75
7 77
7 79
7 80
7 82
7 89
8 14
8 20
8 21
8 22
8 24
8 25
8 28
8 30
8 32
8 33
8 37
8 42
8 43
8 44
8 45
8 48
8 49
8 59
8 61
8 63
8 64
8 65
8 67
8 68
8 69
8 70
8 73
8 74
8 75
8 76
8 77
8 79
8 81
8 84
8 87
8 88
8 89
9 11
9 12
9 13
9 14
9 15
9 16
9 19
9 23
9 25
9 26
9 27
9 30
9 32
9 33
9 37
9 38
9 39
9 40
9 41
9 42
9 43
9 47
9 48
9 50
9 51
9 52
9 53
9 55
9 57
9 58
9 60
9 61
9 62
9 64
9 65
9 66
9 68
9 71
9 72
9 73
9 74
9 75
9 76
9 77
9 79
9 80
9 81
9 86
9 87
9 89
10 12
10 18
10 21
10 22
10 23
10 25
10 26
10 27
10 30
10 31
10 32
10 34
10 35
10 37
10 38
10 39
10 40
10 41
10 43
10 48
10 50
10 53
10 54
10 58
10 59
10 62
10 63
10 66
10 75
10 77
10 79
10 83
10 89
11 12
11 14
11 17
11 18
11 19
11 22
11 24
11 26
11 27
11 29
11 30
11 36
11 37
11 40
11 41
11 43
11 44
11 46
11 49
11 51
11 56
11 58
11 60
11 63
11 65
11 67
11 69
11 71
11 72
11 73
11 74
11 77
11 78
11 80
11 82
11 84
11 85
11 86
11 88
11 89
12 13
12 14
12 15
12 16
12 18
12 19
12 22
12 23
12 24
12 25
12 26
12 27
12 28
12 29
12 31
12 33
12 34
12 35
12 37
12 41
12 44
12 46
12 47
12 49
12 50
12 53
12 54
12 56
12 57
12 59
12 62
12 63
12 65
12 66
12 71
12 74
12 77
12 79
12 80
12 82
12 88
12 89
13 15
13 18
13 21
13 23
13 24
13 27
13 30
13 31
13 33
13 34
13 36
13 37
13 39
13 42
13 43
13 46
13 48
13 52
13 54
13 57
13 58
13 59
13 63
13 65
13 67
13 72
13 73
13 75
13 77
13 78
13 80
13 81
13 82
13 84
13 86
13 88
14 17
14 18
14 20
14 21
14 25
14 27
14 29
14 31
14 35
14 37
14 38
14 41
14 43
14 46
14 48
14 54
14 55
14 57
14 59
14 60
14 61
14 62
14 66
14 68
14 70
14 72
14 73
14 74
14 79
14 80
14 82
14 88
15 16
15 18
15 19
15 20
15 23
15 24
15 26
15 27
15 28
15 30
15 32
15 34
15 37
15 38
15 42
15 44
15 50
15 51
15 52
15 57
15 58
15 60
15 61
15 62
15 63
15 65
15 68
15 70
15 71
15 72
15 73
15 75
15 77
15 81
15 82
15 83
15 85
15 86
15 87
16 19
16 23
16 25
16 30
16 31
16 32
16 33
16 34
16 35
16 37
16 38
16 39
16 41
16 44
16 45
16 46
16 49
16 53
16 54
16 55
16 57
16 58
16 60
16 62
16 63
16 69
16 70
16 71
16 72
16 73
16 75
16 77
16 78
16 80
16 81
16 84
16 86
16 88
16 89
17 18
17 20
17 22
17 23
17 24
17 25
17 26
17 27
17 32
17 33
17 35
17 36
17 37
17 38
17 40
17 42
17 51
17 53
17 54
17 60
17 65
17 66
17 67
17 69
17 70
17 71
17 77
17 80
17 81
17 82
17 83
17 88
18 21
18 22
18 24
18 25
18 26
18 29
18 30
18 33
18 34
18 35
18 36
18 42
18 44
18 45
18 48
18 50
18 51
18 52
18 53
18 55
18 56
18 58
18 62
18 63
18 64
18 68
18 72
18 74
18 76
18 77
18 78
18 79
18 80
18 82
18 84
19 20
19 21
19 23
19 24
19 25
19 27
19 31
19 32
19 34
19 35
19 37
19 39
19 41
19 42
19 52
19 53
19 57
19 59
19 60
19 66
19 67
19 69
19 70
19 72
19 73
19 75
19 76
19 77
19 78
19 80
19 81
19 82
19 85
19 89
20 21
20 22
20 26
20 29
20 31
20 34
20 39
20 40
20 41
20 43
20 44
20 45
20 51
20 52
20 55
20 56
20 58
20 60
20 64
20 66
20 68
20 71
20 73
20 74
20 76
20 78
20 80
20 81
20 86
20 87
21 24
21 25
21 27
21 29
21 35
21 36
21 37
21 38
21 39
21 40
21 41
21 42
21 44
21 45
21 49
21 52
21 53
21 58
21 60
21 61
21 62
21 64
21 66
21 67
21 69
21 71
21 72
21 73
21 74
21 75
21 76
21 77
21 79
21 80
21 81
21 82
21 84
21 87
22 23
22 24
22 25
22 27
22 28
22 29
22 30
22 31
22 33
22 35
22 38
22 40
22 41
22 46
22 47
22 51
22 52
22 54
22 56
22 57
22 62
22 63
22 66
22 67
22 68
22 69
22 70
22 71
22 72
22 74
22 75
22 77
22 78
22 83
22 85
22 89
23 24
23 25
23 27
23 28
23 30
23 32
23 34
23 37
23 40
23 44
23 48
23 51
23 52
23 53
23 54
23 55
23 59
23 60
23 61
23 62
23 63
23 67
23 68
23 70
23 71
23 72
23 74
23 75
23 79
23 80
23 84
23 86
23 87
23 88
23 89
24 25
24 26
24 29
24 30
24 34
24 36
24 37
24 42
24 43
24 44
24 45
24 46
24 51
24 52
24 53
24 54
24 56
24 57
24 58
24 60
24 62
24 65
24 66
24 67
24 68
24 70
24 72
24 73
24 76
24 79
24 81
24 82
24 83
24 84
24 85
24 87
24 88
25 26
25 27
25 36
25 43
25 45
25 46
25 48
25 49
25 52
25 53
25 57
25 61
25 62
25 63
25 64
25 65
25 67
25 72
25 74
25 76
25 77
25 78
25 80
25 82
25 83
25 89
26 29
26 32
26 34
26 35
26 37
26 43
26 44
26 46
26 47
26 49
26 50
26 52
26 54
26 55
26 57
26 59
26 60
26 61
26 62
26 63
26 67
26 70
26 71
26 72
26 74
26 78
26 80
26 81
26 82
26 84
26 86
26 87
26 88
27 30
27 31
27 33
27 35
27 37
27 40
27 43
27 48
27 49
27 50
27 51
27 52
27 54
27 57
27 59
27 60
27 61
27 64
27 66
27 68
27 70
27 73
27 79
27 80
27 81
27 82
27 85
27 86
27 87
28 30
28 37
28 38
28 40
28 41
28 42
28 44
28 46
28 48
28 49
28 50
28 51
28 52
28 53
28 55
28 57
28 59
28 61
28 62
28 69
28 70
28 72
28 79
28 82
28 84
28 86
29 30
29 32
29 33
29 34
29 37
29 38
29 39
29 43
29 46
29 49
29 53
29 56
29 57
29 58
29 59
29 60
29 61
29 63
29 64
29 65
29 68
29 71
29 72
29 73
29 75
29 76
29 77
29 78
29 79
29 83
29 87
29 88
30 39
30 41
30 46
30 47
30 48
30 50
30 51
30 53
30 54
30 56
30 59
30 60
30 61
30 62
30 63
30 66
30 67
30 69
30 71
30 75
30 76
30 78
30 82
30 83
30 84
30 86
31 32
31 33
31 35
31 37
31 39
31 40
31 46
31 47
31 49
31 50
31 51
31 52
31 54
31 59
31 62
31 64
31 66
31 70
31 72
31 77
31 79
31 84
31 87
32 37
32 38
32 40
32 41
32 49
32 53
32 54
32 55
32 56
32 57
32 58
32 61
32 64
32 65
32 66
32 67
32 70
32 72
32 73
32 76
32 77
32 78
32 80
32 81
32 82
32 83
32 86
32 87
32 88
33 36
33 37
33 43
33 44
33 47
33 49
33 52
33 54
33 56
33 57
33 58
33 60
33 61
33 62
33 66
33 67
33 73
33 74
33 75
33 76
33 79
33 81
33 83
33 86
33 87
33 88
33 89
34 37
34 39
34 40
34 41
34 42
34 43
34 46
34 49
34 51
34 53
34 55
34 59
34 60
34 62
34 63
34 67
34 68
34 69
34 70
34 73
34 74
34 76
34 77
34 79
34 81
34 82
35 36
35 37
35 38
35 40
35 41
35 42
35 43
35 45
35 47
35 53
35 54
35 55
35 56
35 59
35 60
35 61
35 64
35 67
35 68
35 69
35 70
35 71
35 72
35 77
35 78
35 79
35 83
35 86
35 87
35 88
36 37
36 40
36 42
36 45
36 46
36 47
36 50
36 53
36 57
36 58
36 61
36 63
36 65
36 66
36 71
36 73
36 75
36 76
36 77
36 79
36 80
36 82
36 83
36 85
36 87
36 88
37 43
37 44
37 52
37 54
37 55
37 56
37 57
37 63
37 65
37 67
37 69
37 70
37 71
37 72
37 74
37 77
37 78
37 81
37 82
37 84
37 85
37 86
37 89
38 39
38 44
38 46
38 47
38 49
38 51
38 52
38 53
38 54
38 57
38 62
38 66
38 69
38 73
38 74
38 76
38 77
38 78
38 79
38 80
38 81
38 82
38 83
38 84
38 88
38 89
39 41
39 43
39 44
39 45
39 46
39 50
39 51
39 53
39 54
39 55
39 56
39 57
39 60
39 61
39 63
39 64
39 65
39 66
39 68
39 70
39 71
39 72
39 80
39 82
39 83
39 85
39 88
40 42
40 43
40 46
40 47
40 49
40 52
40 53
40 54
40 55
40 56
40 58
40 59
40 61
40 64
40 67
40 70
40 73
40 74
40 76
40 78
40 80
40 82
40 85
40 86
40 87
40 88
40 89
41 43
41 44
41 47
41 48
41 50
41 51
41 52
41 53
41 54
41 55
41 56
41 57
41 58
41 59
41 60
41 64
41 66
41 67
41 68
41 72
41 74
41 75
41 76
41 77
41 78
41 81
41 82
41 83
41 84
41 85
41 86
41 87
42 43
42 51
42 52
42 54
42 55
42 57
42 60
42 61
42 69
42 70
42 72
42 73
42 74
42 75
42 78
42 79
42 81
42 82
42 83
42 87
43 44
43 46
43 47
43 48
43 49
43 50
43 52
43 53
43 57
43 58
43 59
43 60
43 61
43 63
43 64
43 65
43 66
43 67
43 70
43 73
43 74
43 75
43 77
43 81
43 88
44 48
44 51
44 52
44 53
44 55
44 57
44 58
44 60
44 65
44 67
44 68
44 70
44 73
44 74
44 78
44 79
44 80
44 84
44 86
45 46
45 47
45 50
45 52
45 53
45 54
45 56
45 60
45 61
45 63
45 64
45 65
45 66
45 68
45 70
45 72
45 74
45 75
45 79
45 80
45 82
45 84
45 87
45 89
46 48
46 49
46 51
46 54
46 55
46 56
46 58
46 59
46 65
46 67
46 71
46 72
46 74
46 75
46 76
46 77
46 80
46 81
46 87
46 88
46 89
47 49
47 54
47 56
47 57
47 58
47 59
47 61
47 62
47 64
47 66
47 67
47 70
47 71
47 72
47 75
47 76
47 77
47 78
47 79
47 84
47 85
47 86
48 51
48 52
48 53
48 55
48 56
48 57
48 59
48 60
48 61
48 62
48 63
48 65
48 66
48 67
48 68
48 69
48 72
48 73
48 74
48 77
48 79
48 80
48 82
48 83
48 87
48 88
49 50
49 51
49 54
49 57
49 59
49 60
49 61
49 62
49 63
49 64
49 66
49 67
49 71
49 72
49 74
49 76
49 78
49 79
49 80
49 81
49 82
49 83
49 86
49 87
49 89
50 52
50 55
50 56
50 57
50 59
50 62
50 63
50 64
50 67
50 69
50 70
50 71
50 72
50 74
50 76
50 77
50 79
50 80
50 82
50 84
50 85
50 86
50 88
50 89
51 52
51 54
51 57
51 61
51 63
51 65
51 66
51 70
51 71
51 73
51 75
51 78
51 81
51 83
51 84
51 86
51 87
51 89
52 54
52 55
52 56
52 57
52 59
52 60
52 61
52 64
52 65
52 67
52 70
52 71
52 74
52 75
52 78
52 79
52 80
52 81
52 82
52 87
52 88
52 89
53 54
53 55
53 56
53 58
53 59
53 61
53 65
53 66
53 67
53 68
53 69
53 71
53 74
53 75
53 79
53 82
53 84
53 85
53 86
53 88
54 55
54 56
54 57
54 58
54 59
54 61
54 63
54 67
54 68
54 69
54 71
54 76
54 77
54 79
54 81
54 83
54 86
54 88
55 57
55 60
55 62
55 63
55 64
55 67
55 69
55 75
55 76
55 77
55 78
55 80
55 82
55 84
55 85
55 86
55 88
56 58
56 59
56 60
56 61
56 62
56 64
56 66
56 69
56 70
56 72
56 73
56 75
56 76
56 77
56 80
56 81
56 82
56 83
56 84
56 85
56 86
56 88
57 61
57 62
57 63
57 64
57 65
57 66
57 69
57 71
57 72
57 73
57 74
57 75
57 76
57 78
57 80
57 82
57 83
57 84
57 85
57 86
58 60
58 64
58 68
58 70
58 73
58 74
58 76
58 78
58 79
58 81
58 84
58 85
58 89
59 60
59 63
59 68
59 70
59 76
59 78
59 80
59 82
59 88
60 61
60 63
60 64
60 69
60 71
60 72
60 77
60 79
60 81
60 83
60 85
60 87
60 88
60 89
61 63
61 65
61 66
61 69
61 72
61 75
61 77
61 78
61 79
61 82
61 87
61 89
62 63
62 64
62 65
62 66
62 70
62 74
62 76
62 81
62 84
62 85
62 87
62 89
63 65
63 67
63 68
63 71
63 77
63 78
63 79
63 81
63 85
63 86
63 88
64 65
64 66
64 67
64 68
64 69
64 76
64 77
64 78
64 80
64 82
64 83
64 85
65 66
65 67
65 68
65 69
65 71
65 72
65 73
65 74
65 75
65 76
65 78
65 80
65 83
65 84
66 70
66 73
66 74
66 76
66 77
66 79
66 80
66 83
66 85
66 87
66 88
66 89
67 68
67 69
67 73
67 74
67 77
67 79
67 80
67 83
67 87
67 88
67 89
68 70
68 71
68 72
68 73
68 74
68 75
68 78
68 79
68 82
68 83
68 87
68 89
69 70
69 72
69 73
69 75
69 83
69 87
69 88
70 71
70 77
70 81
70 82
70 84
70 87
70 88
71 72
71 73
71 76
71 77
71 78
71 79
71 80
71 81
71 82
71 83
71 84
71 88
72 76
72 79
72 82
72 84
72 87
72 88
73 74
73 75
73 76
73 77
73 78
73 80
73 81
73 83
73 84
73 85
73 86
73 87
73 88
74 75
74 76
74 77
74 78
74 79
74 80
74 81
74 82
74 83
74 84
74 86
75 77
75 80
75 81
75 83
75 85
75 86
75 87
76 78
76 79
76 81
76 87
77 82
77 83
77 87
77 89
78 79
78 81
78 86
78 88
79 82
79 83
79 88
79 89
80 81
80 83
80 85
80 88
80 89
81 82
81 84
81 85
81 86
81 87
81 88
82 84
82 89
83 86
83 87
83 88
83 89
84 85
84 86
84 89
85 89
86 87
86 89
88 89
3 8
29 73
52 57
36 67
42 56
5 70
37 40
32 63
77 89
38 60
23 39
17 45
24 76
21 35
30 81
10 44
51 75
41 48
1 12
6 64
80 86
28 85
43 55
9 53
15 50
7 16
59 78
49 65
18 22
47 74
62 68
2 14
4 66
0 87
13 25
11 88
72 79
31 34
27 71
26 54
20 83
33 82
19 84
58 61
46 69
